NAME : 10_3_3_2_(20).dat
COMMENT : Henke, Speranza, Wäscher, 2015
TYPE : MCVRP
DIMENSION : 11
EDGE_WEIGHT_TYPE : DISTANCE_MATRIX
CAPACITY : 1000
VEHICLES : 3
PRODUCT TYPES : 3
COMPARTMENTS : 3
NODE_COORD_SECTION
1 50 50
2 6.33 6.46
3 93.15 61.23
4 34.17 28.92
5 15.5 66.33
6 32.17 27.21
7 8.88 9.03
8 9.14 46.07
9 10.84 37.98
10 73.19 81.51
11 63.88 89.82
DEMAND_SECTION
1 0 0 0
2 72 116 0
3 102 194 0
4 104 66 0
5 143 42 0
6 48 42 0
7 113 0 109
8 51 0 41
9 99 0 75
10 89 36 0
11 6 0 105
DEPOT_SECTION
1
EOF